(declare-fun temp1991_1 () (_ BitVec 64))
(declare-fun var133465 () (_ BitVec 64))
(declare-fun var133459 () (_ BitVec 64))
(declare-fun temp1991_2 () (_ BitVec 64))
(declare-fun var67739 () (_ BitVec 64))
(declare-fun k!0 () Bool)
(declare-fun ARGNAME_contents_NAMEEND_DIM () (_ BitVec 64))
(declare-fun temp1991_3 () (_ BitVec 64))
(declare-fun var399400 () (_ BitVec 64))
(declare-fun var399402 () (_ BitVec 64))
(declare-fun var399420 () (_ BitVec 64))
(declare-fun var399392 () (_ BitVec 64))
(declare-fun var333818 () (_ BitVec 64))
(declare-fun var333815 () (_ BitVec 64))
(declare-fun var264573 () (_ BitVec 64))
(declare-fun temp1991_4 () (_ BitVec 64))
(declare-fun var657813 () (_ BitVec 64))
(declare-fun var67829 () (_ BitVec 64))
(declare-fun var67832 () (_ BitVec 64))
(declare-fun temp1991_5 () (_ BitVec 64))
(declare-fun var792554 () (_ BitVec 64))
(declare-fun var792522 () (_ BitVec 64))
(declare-fun var723451 () (_ BitVec 64))
(declare-fun temp1991_6 () (_ BitVec 64))
(declare-fun temp1991_7 () (_ BitVec 64))
(declare-fun var1054698 () (_ BitVec 64))
(declare-fun var1054666 () (_ BitVec 64))
(declare-fun var723461 () (_ BitVec 64))
(declare-fun temp1991_8 () (_ BitVec 64))
(declare-fun temp1991_9 () (_ BitVec 64))
(declare-fun var1316842 () (_ BitVec 64))
(declare-fun var1316810 () (_ BitVec 64))
(declare-fun var723469 () (_ BitVec 64))
(declare-fun temp1991_10 () (_ BitVec 64))
(declare-fun temp1991_11 () (_ BitVec 64))
(declare-fun var1578986 () (_ BitVec 64))
(declare-fun var1578954 () (_ BitVec 64))
(declare-fun var723477 () (_ BitVec 64))
(declare-fun temp1991_12 () (_ BitVec 64))
(declare-fun temp1991_13 () (_ BitVec 64))
(declare-fun var723478 () (_ BitVec 64))
(declare-fun var723481 () (_ BitVec 64))
(declare-fun var723434 () (_ BitVec 64))
(declare-fun var67858 () (_ BitVec 64))
(declare-fun temp1991_14 () (_ BitVec 64))
(declare-fun temp1991_15 () (_ BitVec 64))
(declare-fun ARGNAME_channels_NAMEEND () (_ BitVec 64))
(declare-fun var1708130 () (_ BitVec 64))
(declare-fun temp1991_16 () (_ BitVec 64))
(declare-fun temp1991_17 () (_ BitVec 64))
(declare-fun var1708280 () (_ BitVec 64))
(declare-fun temp1991_18 () (_ BitVec 64))
(declare-fun var2165141 () (_ BitVec 64))
(declare-fun var1708348 () (_ BitVec 64))
(declare-fun temp1991_19 () (_ BitVec 64))
(declare-fun var1708349 () (_ BitVec 64))
(declare-fun var1708350 () (_ BitVec 64))
(assert (= temp1991_1 #x0000000000000000))
(assert (= var133465
   (ite (= ARGNAME_contents_NAMEEND_DIM temp1991_1)
        #x0000000000000001
        #x0000000000000000)))
(assert (= var133459 var133465))
(assert (= var67739 var133459))
(assert (= temp1991_2 #x0000000000000001))
(assert (= var67739 temp1991_2))
(assert (= temp1991_3 #x0000000000000002))
(assert (= var399402 var399400))
(assert (= var399420 var399402))
(assert (= var399392 var399420))
(assert (= var333818 var399392))
(assert (= var333815 var333818))
(assert (= var264573 var333815))
(assert (= temp1991_4 #x000000007fffffff))
(assert (= var657813 temp1991_4))
(assert (= var67829 var657813))
(assert (= var67832 var67829))
(assert (= temp1991_5 #x0000000000000000))
(assert (= var792554 temp1991_5))
(assert (= var792522 var792554))
(assert (= var723451 var792522))
(assert (= temp1991_6 #x0000000000000000))
(assert (= var723451 temp1991_6))
(assert (= temp1991_7 #x0000000000000000))
(assert (= var1054698 temp1991_7))
(assert (= var1054666 var1054698))
(assert (= var723461 var1054666))
(assert (= temp1991_8 #x0000000000000000))
(assert (= var723461 temp1991_8))
(assert (= temp1991_9 #x0000000000000000))
(assert (= var1316842 temp1991_9))
(assert (= var1316810 var1316842))
(assert (= var723469 var1316810))
(assert (= temp1991_10 #x0000000000000000))
(assert (= var723469 temp1991_10))
(assert (= temp1991_11 #x0000000000000001))
(assert (= var1578986 temp1991_11))
(assert (= var1578954 var1578986))
(assert (= var723477 var1578954))
(assert (= temp1991_12 #x0000000000000004))
(assert (= temp1991_13 #x0000000000000000))
(assert (= var723478 (ite (= var723477 #x0000000000000001) temp1991_12 temp1991_13)))
(assert (= var723481 var723478))
(assert (= var723434 var723481))
(assert (= var67858 var723434))
(assert (= temp1991_14 #x0000000000000004))
(assert (or false (= var67858 temp1991_14)))
(assert (= temp1991_15 #x0000000000000001))
(assert (= var1708130
   (ite (= ARGNAME_channels_NAMEEND temp1991_15)
        #x0000000000000001
        #x0000000000000000)))
(assert (= temp1991_16 #x0000000000000000))
(assert (= var1708130 temp1991_16))
(assert (= temp1991_17 #x0000000000000000))
(assert (= var1708280
   (ite (= ARGNAME_channels_NAMEEND temp1991_17)
        #x0000000000000001
        #x0000000000000000)))
(assert (= temp1991_18 #x000000007fffffff))
(assert (= var2165141 temp1991_18))
(assert (= var1708348 var2165141))
(assert (= temp1991_19 #x0000000000000008))
(assert (= var1708349 (bvsdiv var1708348 temp1991_19)))
(assert (= var1708350 var1708349))
(model-add temp1991_1 () (_ BitVec 64) #x0000000000000000)
(model-add var133465 () (_ BitVec 64) #x0000000000000001)
(model-add var133459 () (_ BitVec 64) #x0000000000000001)
(model-add temp1991_2 () (_ BitVec 64) #x0000000000000001)
(model-add var67739 () (_ BitVec 64) #x0000000000000001)
(model-del k!0)
(model-add ARGNAME_contents_NAMEEND_DIM
           ()
           (_ BitVec 64)
           (ite k!0 #x0000000000000000 (bvnot #x0000000000000000)))















